* #variable= 123 #constraint= 90
* Constraints for _ZN5MTKpp6vertex7setNameENSt7__cxx1112basic_stringIcSt11char_traitsIcESaIcEEE
min:  +400 x42 +800 x117 +400 x118 +400 x119 +400 x120 +400 x121 +400 x122 +400 x123 -1 x47 -1 x6 -1 x6 -1 x33 -1 x47 -1 x91;
* Callee-save Registers
 -1 x3 -1 x15 -1 x16 -1 x17 -1 x18 -1 x19 -1 x20 -1 x21 -1 x22 -1 x23 -1 x24 -1 x25 -1 x26 -1 x27 -1 x28 -1 x29 -1 x30 -1 x31 -1 x32 -1 x33 -1 x34 -1 x35 -1 x36 -1 x37 -1 x38 -1 x39 -1 x40 -1 x41 -1 x45 -1 x102 -1 x103 -1 x104 -1 x105 -1 x106 -1 x107 -1 x108 -1 x109 -1 x110 -1 x111 -1 x112 -1 x113 -1 x114 -1 x115 -1 x116 -1 x73 -1 x74 -1 x75 -1 x76 -1 x77 -1 x78 -1 x79 -1 x80 -1 x81 -1 x82 -1 x83 -1 x84 -1 x85 -1 x86 -1 x87 -1 x88 -1 x89 -1 x90 -1 x91 -1 x92 -1 x93 -1 x94 -1 x95 -1 x96 -1 x97 -1 x98 -1 x99 -1 x100 -1 x101 -1 x102 -1 x103 -1 x104 -1 x105 -1 x106 -1 x107 -1 x108 -1 x109 -1 x110 -1 x111 -1 x112 -1 x113 -1 x114 -1 x115 -1 x116 +88 x118 >= 0;
 -1 ~x3 -1 ~x15 -1 ~x16 -1 ~x17 -1 ~x18 -1 ~x19 -1 ~x20 -1 ~x21 -1 ~x22 -1 ~x23 -1 ~x24 -1 ~x25 -1 ~x26 -1 ~x27 -1 ~x28 -1 ~x29 -1 ~x30 -1 ~x31 -1 ~x32 -1 ~x33 -1 ~x34 -1 ~x35 -1 ~x36 -1 ~x37 -1 ~x38 -1 ~x39 -1 ~x40 -1 ~x41 -1 ~x45 -1 ~x102 -1 ~x103 -1 ~x104 -1 ~x105 -1 ~x106 -1 ~x107 -1 ~x108 -1 ~x109 -1 ~x110 -1 ~x111 -1 ~x112 -1 ~x113 -1 ~x114 -1 ~x115 -1 ~x116 -1 ~x73 -1 ~x74 -1 ~x75 -1 ~x76 -1 ~x77 -1 ~x78 -1 ~x79 -1 ~x80 -1 ~x81 -1 ~x82 -1 ~x83 -1 ~x84 -1 ~x85 -1 ~x86 -1 ~x87 -1 ~x88 -1 ~x89 -1 ~x90 -1 ~x91 -1 ~x92 -1 ~x93 -1 ~x94 -1 ~x95 -1 ~x96 -1 ~x97 -1 ~x98 -1 ~x99 -1 ~x100 -1 ~x101 -1 ~x102 -1 ~x103 -1 ~x104 -1 ~x105 -1 ~x106 -1 ~x107 -1 ~x108 -1 ~x109 -1 ~x110 -1 ~x111 -1 ~x112 -1 ~x113 -1 ~x114 -1 ~x115 -1 ~x116 +88 ~x118 >= -87;
 -1 x11 -1 x15 -1 x16 -1 x17 -1 x18 -1 x19 -1 x20 -1 x21 -1 x22 -1 x23 -1 x24 -1 x25 -1 x26 -1 x27 -1 x28 -1 x29 -1 x30 -1 x31 -1 x32 -1 x33 -1 x34 -1 x35 -1 x36 -1 x37 -1 x38 -1 x39 -1 x40 -1 x41 -1 x54 -1 x102 -1 x103 -1 x104 -1 x105 -1 x106 -1 x107 -1 x108 -1 x109 -1 x110 -1 x111 -1 x112 -1 x113 -1 x114 -1 x115 -1 x116 -1 x73 -1 x74 -1 x75 -1 x76 -1 x77 -1 x78 -1 x79 -1 x80 -1 x81 -1 x82 -1 x83 -1 x84 -1 x85 -1 x86 -1 x87 -1 x88 -1 x89 -1 x90 -1 x91 -1 x92 -1 x93 -1 x94 -1 x95 -1 x96 -1 x97 -1 x98 -1 x99 -1 x100 -1 x101 -1 x102 -1 x103 -1 x104 -1 x105 -1 x106 -1 x107 -1 x108 -1 x109 -1 x110 -1 x111 -1 x112 -1 x113 -1 x114 -1 x115 -1 x116 +88 x119 >= 0;
 -1 ~x11 -1 ~x15 -1 ~x16 -1 ~x17 -1 ~x18 -1 ~x19 -1 ~x20 -1 ~x21 -1 ~x22 -1 ~x23 -1 ~x24 -1 ~x25 -1 ~x26 -1 ~x27 -1 ~x28 -1 ~x29 -1 ~x30 -1 ~x31 -1 ~x32 -1 ~x33 -1 ~x34 -1 ~x35 -1 ~x36 -1 ~x37 -1 ~x38 -1 ~x39 -1 ~x40 -1 ~x41 -1 ~x54 -1 ~x102 -1 ~x103 -1 ~x104 -1 ~x105 -1 ~x106 -1 ~x107 -1 ~x108 -1 ~x109 -1 ~x110 -1 ~x111 -1 ~x112 -1 ~x113 -1 ~x114 -1 ~x115 -1 ~x116 -1 ~x73 -1 ~x74 -1 ~x75 -1 ~x76 -1 ~x77 -1 ~x78 -1 ~x79 -1 ~x80 -1 ~x81 -1 ~x82 -1 ~x83 -1 ~x84 -1 ~x85 -1 ~x86 -1 ~x87 -1 ~x88 -1 ~x89 -1 ~x90 -1 ~x91 -1 ~x92 -1 ~x93 -1 ~x94 -1 ~x95 -1 ~x96 -1 ~x97 -1 ~x98 -1 ~x99 -1 ~x100 -1 ~x101 -1 ~x102 -1 ~x103 -1 ~x104 -1 ~x105 -1 ~x106 -1 ~x107 -1 ~x108 -1 ~x109 -1 ~x110 -1 ~x111 -1 ~x112 -1 ~x113 -1 ~x114 -1 ~x115 -1 ~x116 +88 ~x119 >= -87;
 -1 x12 -1 x15 -1 x16 -1 x17 -1 x18 -1 x19 -1 x20 -1 x21 -1 x22 -1 x23 -1 x24 -1 x25 -1 x26 -1 x27 -1 x28 -1 x29 -1 x30 -1 x31 -1 x32 -1 x33 -1 x34 -1 x35 -1 x36 -1 x37 -1 x38 -1 x39 -1 x40 -1 x41 -1 x55 -1 x102 -1 x103 -1 x104 -1 x105 -1 x106 -1 x107 -1 x108 -1 x109 -1 x110 -1 x111 -1 x112 -1 x113 -1 x114 -1 x115 -1 x116 -1 x73 -1 x74 -1 x75 -1 x76 -1 x77 -1 x78 -1 x79 -1 x80 -1 x81 -1 x82 -1 x83 -1 x84 -1 x85 -1 x86 -1 x87 -1 x88 -1 x89 -1 x90 -1 x91 -1 x92 -1 x93 -1 x94 -1 x95 -1 x96 -1 x97 -1 x98 -1 x99 -1 x100 -1 x101 -1 x102 -1 x103 -1 x104 -1 x105 -1 x106 -1 x107 -1 x108 -1 x109 -1 x110 -1 x111 -1 x112 -1 x113 -1 x114 -1 x115 -1 x116 +88 x120 >= 0;
 -1 ~x12 -1 ~x15 -1 ~x16 -1 ~x17 -1 ~x18 -1 ~x19 -1 ~x20 -1 ~x21 -1 ~x22 -1 ~x23 -1 ~x24 -1 ~x25 -1 ~x26 -1 ~x27 -1 ~x28 -1 ~x29 -1 ~x30 -1 ~x31 -1 ~x32 -1 ~x33 -1 ~x34 -1 ~x35 -1 ~x36 -1 ~x37 -1 ~x38 -1 ~x39 -1 ~x40 -1 ~x41 -1 ~x55 -1 ~x102 -1 ~x103 -1 ~x104 -1 ~x105 -1 ~x106 -1 ~x107 -1 ~x108 -1 ~x109 -1 ~x110 -1 ~x111 -1 ~x112 -1 ~x113 -1 ~x114 -1 ~x115 -1 ~x116 -1 ~x73 -1 ~x74 -1 ~x75 -1 ~x76 -1 ~x77 -1 ~x78 -1 ~x79 -1 ~x80 -1 ~x81 -1 ~x82 -1 ~x83 -1 ~x84 -1 ~x85 -1 ~x86 -1 ~x87 -1 ~x88 -1 ~x89 -1 ~x90 -1 ~x91 -1 ~x92 -1 ~x93 -1 ~x94 -1 ~x95 -1 ~x96 -1 ~x97 -1 ~x98 -1 ~x99 -1 ~x100 -1 ~x101 -1 ~x102 -1 ~x103 -1 ~x104 -1 ~x105 -1 ~x106 -1 ~x107 -1 ~x108 -1 ~x109 -1 ~x110 -1 ~x111 -1 ~x112 -1 ~x113 -1 ~x114 -1 ~x115 -1 ~x116 +88 ~x120 >= -87;
 -1 x13 -1 x15 -1 x16 -1 x17 -1 x18 -1 x19 -1 x20 -1 x21 -1 x22 -1 x23 -1 x24 -1 x25 -1 x26 -1 x27 -1 x28 -1 x29 -1 x30 -1 x31 -1 x32 -1 x33 -1 x34 -1 x35 -1 x36 -1 x37 -1 x38 -1 x39 -1 x40 -1 x41 -1 x56 -1 x102 -1 x103 -1 x104 -1 x105 -1 x106 -1 x107 -1 x108 -1 x109 -1 x110 -1 x111 -1 x112 -1 x113 -1 x114 -1 x115 -1 x116 -1 x73 -1 x74 -1 x75 -1 x76 -1 x77 -1 x78 -1 x79 -1 x80 -1 x81 -1 x82 -1 x83 -1 x84 -1 x85 -1 x86 -1 x87 -1 x88 -1 x89 -1 x90 -1 x91 -1 x92 -1 x93 -1 x94 -1 x95 -1 x96 -1 x97 -1 x98 -1 x99 -1 x100 -1 x101 -1 x102 -1 x103 -1 x104 -1 x105 -1 x106 -1 x107 -1 x108 -1 x109 -1 x110 -1 x111 -1 x112 -1 x113 -1 x114 -1 x115 -1 x116 +88 x121 >= 0;
 -1 ~x13 -1 ~x15 -1 ~x16 -1 ~x17 -1 ~x18 -1 ~x19 -1 ~x20 -1 ~x21 -1 ~x22 -1 ~x23 -1 ~x24 -1 ~x25 -1 ~x26 -1 ~x27 -1 ~x28 -1 ~x29 -1 ~x30 -1 ~x31 -1 ~x32 -1 ~x33 -1 ~x34 -1 ~x35 -1 ~x36 -1 ~x37 -1 ~x38 -1 ~x39 -1 ~x40 -1 ~x41 -1 ~x56 -1 ~x102 -1 ~x103 -1 ~x104 -1 ~x105 -1 ~x106 -1 ~x107 -1 ~x108 -1 ~x109 -1 ~x110 -1 ~x111 -1 ~x112 -1 ~x113 -1 ~x114 -1 ~x115 -1 ~x116 -1 ~x73 -1 ~x74 -1 ~x75 -1 ~x76 -1 ~x77 -1 ~x78 -1 ~x79 -1 ~x80 -1 ~x81 -1 ~x82 -1 ~x83 -1 ~x84 -1 ~x85 -1 ~x86 -1 ~x87 -1 ~x88 -1 ~x89 -1 ~x90 -1 ~x91 -1 ~x92 -1 ~x93 -1 ~x94 -1 ~x95 -1 ~x96 -1 ~x97 -1 ~x98 -1 ~x99 -1 ~x100 -1 ~x101 -1 ~x102 -1 ~x103 -1 ~x104 -1 ~x105 -1 ~x106 -1 ~x107 -1 ~x108 -1 ~x109 -1 ~x110 -1 ~x111 -1 ~x112 -1 ~x113 -1 ~x114 -1 ~x115 -1 ~x116 +88 ~x121 >= -87;
 -1 x14 -1 x15 -1 x16 -1 x17 -1 x18 -1 x19 -1 x20 -1 x21 -1 x22 -1 x23 -1 x24 -1 x25 -1 x26 -1 x27 -1 x28 -1 x29 -1 x30 -1 x31 -1 x32 -1 x33 -1 x34 -1 x35 -1 x36 -1 x37 -1 x38 -1 x39 -1 x40 -1 x41 -1 x57 -1 x102 -1 x103 -1 x104 -1 x105 -1 x106 -1 x107 -1 x108 -1 x109 -1 x110 -1 x111 -1 x112 -1 x113 -1 x114 -1 x115 -1 x116 -1 x73 -1 x74 -1 x75 -1 x76 -1 x77 -1 x78 -1 x79 -1 x80 -1 x81 -1 x82 -1 x83 -1 x84 -1 x85 -1 x86 -1 x87 -1 x88 -1 x89 -1 x90 -1 x91 -1 x92 -1 x93 -1 x94 -1 x95 -1 x96 -1 x97 -1 x98 -1 x99 -1 x100 -1 x101 -1 x102 -1 x103 -1 x104 -1 x105 -1 x106 -1 x107 -1 x108 -1 x109 -1 x110 -1 x111 -1 x112 -1 x113 -1 x114 -1 x115 -1 x116 +88 x122 >= 0;
 -1 ~x14 -1 ~x15 -1 ~x16 -1 ~x17 -1 ~x18 -1 ~x19 -1 ~x20 -1 ~x21 -1 ~x22 -1 ~x23 -1 ~x24 -1 ~x25 -1 ~x26 -1 ~x27 -1 ~x28 -1 ~x29 -1 ~x30 -1 ~x31 -1 ~x32 -1 ~x33 -1 ~x34 -1 ~x35 -1 ~x36 -1 ~x37 -1 ~x38 -1 ~x39 -1 ~x40 -1 ~x41 -1 ~x57 -1 ~x102 -1 ~x103 -1 ~x104 -1 ~x105 -1 ~x106 -1 ~x107 -1 ~x108 -1 ~x109 -1 ~x110 -1 ~x111 -1 ~x112 -1 ~x113 -1 ~x114 -1 ~x115 -1 ~x116 -1 ~x73 -1 ~x74 -1 ~x75 -1 ~x76 -1 ~x77 -1 ~x78 -1 ~x79 -1 ~x80 -1 ~x81 -1 ~x82 -1 ~x83 -1 ~x84 -1 ~x85 -1 ~x86 -1 ~x87 -1 ~x88 -1 ~x89 -1 ~x90 -1 ~x91 -1 ~x92 -1 ~x93 -1 ~x94 -1 ~x95 -1 ~x96 -1 ~x97 -1 ~x98 -1 ~x99 -1 ~x100 -1 ~x101 -1 ~x102 -1 ~x103 -1 ~x104 -1 ~x105 -1 ~x106 -1 ~x107 -1 ~x108 -1 ~x109 -1 ~x110 -1 ~x111 -1 ~x112 -1 ~x113 -1 ~x114 -1 ~x115 -1 ~x116 +88 ~x122 >= -87;
 -1 x2 -1 x15 -1 x16 -1 x17 -1 x18 -1 x19 -1 x20 -1 x21 -1 x22 -1 x23 -1 x24 -1 x25 -1 x26 -1 x27 -1 x28 -1 x29 -1 x30 -1 x31 -1 x32 -1 x33 -1 x34 -1 x35 -1 x36 -1 x37 -1 x38 -1 x39 -1 x40 -1 x41 -1 x44 -1 x102 -1 x103 -1 x104 -1 x105 -1 x106 -1 x107 -1 x108 -1 x109 -1 x110 -1 x111 -1 x112 -1 x113 -1 x114 -1 x115 -1 x116 -1 x73 -1 x74 -1 x75 -1 x76 -1 x77 -1 x78 -1 x79 -1 x80 -1 x81 -1 x82 -1 x83 -1 x84 -1 x85 -1 x86 -1 x87 -1 x88 -1 x89 -1 x90 -1 x91 -1 x92 -1 x93 -1 x94 -1 x95 -1 x96 -1 x97 -1 x98 -1 x99 -1 x100 -1 x101 -1 x102 -1 x103 -1 x104 -1 x105 -1 x106 -1 x107 -1 x108 -1 x109 -1 x110 -1 x111 -1 x112 -1 x113 -1 x114 -1 x115 -1 x116 +88 x123 >= 0;
 -1 ~x2 -1 ~x15 -1 ~x16 -1 ~x17 -1 ~x18 -1 ~x19 -1 ~x20 -1 ~x21 -1 ~x22 -1 ~x23 -1 ~x24 -1 ~x25 -1 ~x26 -1 ~x27 -1 ~x28 -1 ~x29 -1 ~x30 -1 ~x31 -1 ~x32 -1 ~x33 -1 ~x34 -1 ~x35 -1 ~x36 -1 ~x37 -1 ~x38 -1 ~x39 -1 ~x40 -1 ~x41 -1 ~x44 -1 ~x102 -1 ~x103 -1 ~x104 -1 ~x105 -1 ~x106 -1 ~x107 -1 ~x108 -1 ~x109 -1 ~x110 -1 ~x111 -1 ~x112 -1 ~x113 -1 ~x114 -1 ~x115 -1 ~x116 -1 ~x73 -1 ~x74 -1 ~x75 -1 ~x76 -1 ~x77 -1 ~x78 -1 ~x79 -1 ~x80 -1 ~x81 -1 ~x82 -1 ~x83 -1 ~x84 -1 ~x85 -1 ~x86 -1 ~x87 -1 ~x88 -1 ~x89 -1 ~x90 -1 ~x91 -1 ~x92 -1 ~x93 -1 ~x94 -1 ~x95 -1 ~x96 -1 ~x97 -1 ~x98 -1 ~x99 -1 ~x100 -1 ~x101 -1 ~x102 -1 ~x103 -1 ~x104 -1 ~x105 -1 ~x106 -1 ~x107 -1 ~x108 -1 ~x109 -1 ~x110 -1 ~x111 -1 ~x112 -1 ~x113 -1 ~x114 -1 ~x115 -1 ~x116 +88 ~x123 >= -87;
* Move Conjunctions
* Valid Assignment
 +1 x1 +1 x2 +1 x3 +1 x4 +1 x5 +1 x6 +1 x7 +1 x8 +1 x9 +1 x10 +1 x11 +1 x12 +1 x13 +1 x14 +1 x42 = 1;
 +1 x43 +1 x44 +1 x45 +1 x46 +1 x47 +1 x48 +1 x49 +1 x50 +1 x51 +1 x52 +1 x53 +1 x54 +1 x55 +1 x56 +1 x57 +1 x117 = 1;
* Valid Usage
 -1 x42 +1 x15 +1 x16 +1 x17 +1 x18 +1 x19 +1 x20 +1 x21 +1 x22 +1 x23 +1 x24 +1 x25 +1 x26 +1 x27 = 0;
 -1 x42 +1 x28 +1 x29 +1 x30 +1 x31 +1 x32 +1 x33 +1 x34 +1 x35 +1 x36 +1 x37 +1 x38 +1 x39 +1 x40 +1 x41 = 0;
 -1 x117 +1 x102 +1 x103 +1 x104 +1 x105 +1 x106 +1 x107 +1 x108 +1 x109 +1 x110 +1 x111 +1 x112 +1 x113 +1 x114 +1 x115 +1 x116 = 0;
 -1 x117 +1 x73 +1 x74 +1 x75 +1 x76 +1 x77 +1 x78 +1 x79 +1 x80 +1 x81 +1 x82 +1 x83 +1 x84 +1 x85 +1 x86 = 0;
 -1 x117 +1 x87 +1 x88 +1 x89 +1 x90 +1 x91 +1 x92 +1 x93 +1 x94 +1 x95 +1 x96 +1 x97 +1 x98 +1 x99 +1 x100 +1 x101 = 0;
 -1 x117 +1 x102 +1 x103 +1 x104 +1 x105 +1 x106 +1 x107 +1 x108 +1 x109 +1 x110 +1 x111 +1 x112 +1 x113 +1 x114 +1 x115 +1 x116 = 0;
* Conflict Constraints
 +1 ~x43 +1 ~x1 >= 1;
 +1 ~x44 +1 ~x2 >= 1;
 +1 ~x45 +1 ~x3 >= 1;
 +1 ~x46 +1 ~x4 >= 1;
 +1 ~x48 +1 ~x5 >= 1;
 +1 ~x49 +1 ~x6 >= 1;
 +1 ~x50 +1 ~x7 >= 1;
 +1 ~x51 +1 ~x8 >= 1;
 +1 ~x52 +1 ~x9 >= 1;
 +1 ~x53 +1 ~x10 >= 1;
 +1 ~x54 +1 ~x11 >= 1;
 +1 ~x55 +1 ~x12 >= 1;
 +1 ~x56 +1 ~x13 >= 1;
 +1 ~x57 +1 ~x14 >= 1;
* Usage Constraints
 +1 ~x102 +1 ~x1 >= 1;
 +1 ~x103 +1 ~x2 >= 1;
 +1 ~x104 +1 ~x3 >= 1;
 +1 ~x105 +1 ~x4 >= 1;
 +1 ~x107 +1 ~x5 >= 1;
 +1 ~x108 +1 ~x6 >= 1;
 +1 ~x109 +1 ~x7 >= 1;
 +1 ~x110 +1 ~x8 >= 1;
 +1 ~x111 +1 ~x9 >= 1;
 +1 ~x112 +1 ~x10 >= 1;
 +1 ~x113 +1 ~x11 >= 1;
 +1 ~x114 +1 ~x12 >= 1;
 +1 ~x115 +1 ~x13 >= 1;
 +1 ~x116 +1 ~x14 >= 1;
 +1 ~x73 +1 ~x1 >= 1;
 +1 ~x74 +1 ~x2 >= 1;
 +1 ~x75 +1 ~x3 >= 1;
 +1 ~x76 +1 ~x4 >= 1;
 +1 ~x77 +1 ~x5 >= 1;
 +1 ~x78 +1 ~x6 >= 1;
 +1 ~x79 +1 ~x7 >= 1;
 +1 ~x80 +1 ~x8 >= 1;
 +1 ~x81 +1 ~x9 >= 1;
 +1 ~x82 +1 ~x10 >= 1;
 +1 ~x83 +1 ~x11 >= 1;
 +1 ~x84 +1 ~x12 >= 1;
 +1 ~x85 +1 ~x13 >= 1;
 +1 ~x86 +1 ~x14 >= 1;
 +1 ~x87 +1 ~x1 >= 1;
 +1 ~x88 +1 ~x2 >= 1;
 +1 ~x89 +1 ~x3 >= 1;
 +1 ~x90 +1 ~x4 >= 1;
 +1 ~x92 +1 ~x5 >= 1;
 +1 ~x93 +1 ~x6 >= 1;
 +1 ~x94 +1 ~x7 >= 1;
 +1 ~x95 +1 ~x8 >= 1;
 +1 ~x96 +1 ~x9 >= 1;
 +1 ~x97 +1 ~x10 >= 1;
 +1 ~x98 +1 ~x11 >= 1;
 +1 ~x99 +1 ~x12 >= 1;
 +1 ~x100 +1 ~x13 >= 1;
 +1 ~x101 +1 ~x14 >= 1;
 +1 ~x102 +1 ~x1 >= 1;
 +1 ~x103 +1 ~x2 >= 1;
 +1 ~x104 +1 ~x3 >= 1;
 +1 ~x105 +1 ~x4 >= 1;
 +1 ~x107 +1 ~x5 >= 1;
 +1 ~x108 +1 ~x6 >= 1;
 +1 ~x109 +1 ~x7 >= 1;
 +1 ~x110 +1 ~x8 >= 1;
 +1 ~x111 +1 ~x9 >= 1;
 +1 ~x112 +1 ~x10 >= 1;
 +1 ~x113 +1 ~x11 >= 1;
 +1 ~x114 +1 ~x12 >= 1;
 +1 ~x115 +1 ~x13 >= 1;
 +1 ~x116 +1 ~x14 >= 1;
